(set-logic QF_NRA)
(set-info :source |Benchmarks generated from hycomp (https://es-static.fbk.eu/tools/hycomp/). BMC instances of non-linear hybrid automata taken from: Alessandro Cimatti, Sergio Mover, Stefano Tonetta, A quantifier-free SMT encoding of non-linear hybrid automata, FMCAD 2012 and Alessandro Cimatti, Sergio Mover, Stefano Tonetta, Quantier-free encoding of invariants for Hybrid Systems, Formal Methods in System Design. This instance solves a BMC problem of depth 1 and uses the quantifier free encoding with equivalences and lemmas encoding. Contacts: Sergio Mover (mover@fbk.eu), Stefano Tonetta (tonettas@fbk.eu), Alessandro Cimatti (cimatti@fbk.eu).|)
(set-info :smt-lib-version 2.0)
(set-info :category "industrial")
(set-info :status unsat)
;; MathSAT API call trace
;; generated on Mon Mar 19 10:37:16 2012
(declare-fun b.EVENT.0__AT1 () Bool)
(declare-fun b.EVENT.1__AT1 () Bool)
(declare-fun b.counter.3__AT0 () Bool)
(declare-fun b.x__AT0 () Real)
(declare-fun b.speed_y__AT0 () Real)
(declare-fun b.speed_x__AT0 () Real)
(declare-fun b.x__AT1 () Real)
(declare-fun b.EVENT.1__AT0 () Bool)
(declare-fun b.event_is_timed__AT1 () Bool)
(declare-fun b.time__AT0 () Real)
(declare-fun b.speed_x__AT1 () Real)
(declare-fun b.speed_y__AT1 () Real)
(declare-fun b.y__AT0 () Real)
(declare-fun b.counter.0__AT0 () Bool)
(declare-fun b.counter.1__AT0 () Bool)
(declare-fun g__AT0 () Real)
(declare-fun b.event_is_timed__AT0 () Bool)
(declare-fun b.counter.2__AT0 () Bool)
(declare-fun b.time__AT1 () Real)
(declare-fun b.delta__AT1 () Real)
(declare-fun b.delta__AT0 () Real)
(declare-fun b.EVENT.0__AT0 () Bool)
(declare-fun b.y__AT1 () Real)
(declare-fun b.counter.0__AT1 () Bool)
(declare-fun b.counter.1__AT1 () Bool)
(declare-fun b.counter.2__AT1 () Bool)
(declare-fun b.counter.3__AT1 () Bool)
(declare-fun speed_loss__AT0 () Real)
(assert (let ((.def_71 (* (- 1.0) g__AT0)))
(let ((.def_72 (* (/ 1 2) .def_71)))
(let ((.def_79 (* 2.0 .def_72)))
(let ((.def_291 (* .def_79 b.delta__AT1)))
(let ((.def_292 (+ b.speed_y__AT1 .def_291)))
(let ((.def_309 (<= .def_292 0.0 )))
(let ((.def_310 (not .def_309)))
(let ((.def_307 (<= b.speed_y__AT1 0.0 )))
(let ((.def_330 (or .def_307 .def_310)))
(let ((.def_295 (<= 0.0 b.speed_y__AT1)))
(let ((.def_296 (not .def_295)))
(let ((.def_293 (<= 0.0 .def_292)))
(let ((.def_329 (or .def_293 .def_296)))
(let ((.def_331 (and .def_329 .def_330)))
(let ((.def_119 (<= 0.0 g__AT0)))
(let ((.def_332 (or .def_119 .def_331)))
(let ((.def_294 (not .def_293)))
(let ((.def_326 (or .def_294 .def_295)))
(let ((.def_308 (not .def_307)))
(let ((.def_325 (or .def_308 .def_309)))
(let ((.def_327 (and .def_325 .def_326)))
(let ((.def_114 (<= g__AT0 0.0 )))
(let ((.def_328 (or .def_114 .def_327)))
(let ((.def_333 (and .def_328 .def_332)))
(let ((.def_322 (and .def_307 .def_309)))
(let ((.def_321 (and .def_293 .def_295)))
(let ((.def_323 (or .def_321 .def_322)))
(let ((.def_286 (* b.speed_y__AT1 b.delta__AT1)))
(let ((.def_284 (* b.delta__AT1 b.delta__AT1)))
(let ((.def_285 (* .def_72 .def_284)))
(let ((.def_287 (+ .def_285 .def_286)))
(let ((.def_288 (+ b.y__AT1 .def_287)))
(let ((.def_301 (<= .def_288 0.0 )))
(let ((.def_315 (not .def_301)))
(let ((.def_299 (<= b.y__AT1 0.0 )))
(let ((.def_316 (or .def_299 .def_315)))
(let ((.def_277 (<= 0.0 b.y__AT1)))
(let ((.def_313 (not .def_277)))
(let ((.def_289 (<= 0.0 .def_288)))
(let ((.def_314 (or .def_289 .def_313)))
(let ((.def_317 (and .def_314 .def_316)))
(let ((.def_311 (or .def_308 .def_310)))
(let ((.def_312 (not .def_311)))
(let ((.def_318 (or .def_312 .def_317)))
(let ((.def_303 (not .def_289)))
(let ((.def_304 (or .def_277 .def_303)))
(let ((.def_300 (not .def_299)))
(let ((.def_302 (or .def_300 .def_301)))
(let ((.def_305 (and .def_302 .def_304)))
(let ((.def_297 (or .def_294 .def_296)))
(let ((.def_298 (not .def_297)))
(let ((.def_306 (or .def_298 .def_305)))
(let ((.def_319 (and .def_306 .def_318)))
(let ((.def_290 (and .def_277 .def_289)))
(let ((.def_320 (and .def_290 .def_319)))
(let ((.def_324 (and .def_320 .def_323)))
(let ((.def_334 (and .def_324 .def_333)))
(let ((.def_52 (<= g__AT0 10.0 )))
(let ((.def_51 (<= 8.0 g__AT0)))
(let ((.def_53 (and .def_51 .def_52)))
(let ((.def_335 (and .def_53 .def_334)))
(let ((.def_60 (<= speed_loss__AT0 (/ 1 2))))
(let ((.def_57 (<= (/ 1 10) speed_loss__AT0)))
(let ((.def_61 (and .def_57 .def_60)))
(let ((.def_336 (and .def_61 .def_335)))
(let ((.def_62 (and .def_53 .def_61)))
(let ((.def_278 (and .def_62 .def_277)))
(let ((.def_274 (not b.EVENT.0__AT1)))
(let ((.def_272 (not b.EVENT.1__AT1)))
(let ((.def_275 (or .def_272 .def_274)))
(let ((.def_6 (not b.counter.0__AT1)))
(let ((.def_4 (not b.counter.1__AT1)))
(let ((.def_265 (or .def_4 .def_6)))
(let ((.def_269 (or b.counter.3__AT1 .def_265)))
(let ((.def_266 (or b.counter.2__AT1 .def_265)))
(let ((.def_9 (not b.counter.2__AT1)))
(let ((.def_264 (or .def_6 .def_9)))
(let ((.def_267 (and .def_264 .def_266)))
(let ((.def_186 (not b.counter.3__AT1)))
(let ((.def_268 (or .def_186 .def_267)))
(let ((.def_270 (and .def_268 .def_269)))
(let ((.def_276 (and .def_270 .def_275)))
(let ((.def_279 (and .def_276 .def_278)))
(let ((.def_259 (<= 0.0 b.delta__AT0)))
(let ((.def_46 (not b.EVENT.0__AT0)))
(let ((.def_44 (not b.EVENT.1__AT0)))
(let ((.def_158 (and .def_44 .def_46)))
(let ((.def_159 (not .def_158)))
(let ((.def_260 (or .def_159 .def_259)))
(let ((.def_261 (or b.EVENT.1__AT0 .def_260)))
(let ((.def_208 (= b.counter.0__AT1 b.counter.0__AT0)))
(let ((.def_206 (= b.counter.1__AT1 b.counter.1__AT0)))
(let ((.def_204 (= b.counter.2__AT1 b.counter.2__AT0)))
(let ((.def_203 (= b.counter.3__AT0 b.counter.3__AT1)))
(let ((.def_205 (and .def_203 .def_204)))
(let ((.def_207 (and .def_205 .def_206)))
(let ((.def_209 (and .def_207 .def_208)))
(let ((.def_256 (or .def_159 .def_209)))
(let ((.def_257 (or b.EVENT.1__AT0 .def_256)))
(let ((.def_216 (= b.x__AT1 b.x__AT0)))
(let ((.def_213 (= b.y__AT0 b.y__AT1)))
(let ((.def_250 (and .def_213 .def_216)))
(let ((.def_140 (= b.speed_x__AT0 b.speed_x__AT1)))
(let ((.def_251 (and .def_140 .def_250)))
(let ((.def_202 (= b.speed_y__AT0 b.speed_y__AT1)))
(let ((.def_252 (and .def_202 .def_251)))
(let ((.def_247 (= b.delta__AT0 0.0 )))
(let ((.def_248 (and .def_158 .def_247)))
(let ((.def_249 (not .def_248)))
(let ((.def_253 (or .def_249 .def_252)))
(let ((.def_254 (or b.EVENT.1__AT0 .def_253)))
(let ((.def_227 (= b.time__AT0 b.time__AT1)))
(let ((.def_239 (and .def_216 .def_227)))
(let ((.def_240 (and .def_213 .def_239)))
(let ((.def_241 (and .def_140 .def_240)))
(let ((.def_242 (and .def_202 .def_241)))
(let ((.def_243 (and .def_209 .def_242)))
(let ((.def_244 (or .def_44 .def_243)))
(let ((.def_230 (* (- 1.0) b.time__AT1)))
(let ((.def_233 (+ b.delta__AT0 .def_230)))
(let ((.def_234 (+ b.time__AT0 .def_233)))
(let ((.def_235 (= .def_234 0.0 )))
(let ((.def_236 (or .def_159 .def_235)))
(let ((.def_237 (or b.EVENT.1__AT0 .def_236)))
(let ((.def_228 (or .def_158 .def_227)))
(let ((.def_229 (or b.EVENT.1__AT0 .def_228)))
(let ((.def_238 (and .def_229 .def_237)))
(let ((.def_245 (and .def_238 .def_244)))
(let ((.def_223 (= .def_159 b.event_is_timed__AT1)))
(let ((.def_221 (= b.event_is_timed__AT0 .def_158)))
(let ((.def_224 (and .def_221 .def_223)))
(let ((.def_210 (and .def_202 .def_209)))
(let ((.def_161 (= b.y__AT0 0.0 )))
(let ((.def_84 (<= 0.0 b.speed_y__AT0)))
(let ((.def_85 (not .def_84)))
(let ((.def_162 (and .def_85 .def_161)))
(let ((.def_211 (or .def_162 .def_210)))
(let ((.def_177 (or .def_6 b.counter.0__AT0)))
(let ((.def_27 (not b.counter.0__AT0)))
(let ((.def_176 (or b.counter.0__AT1 .def_27)))
(let ((.def_178 (and .def_176 .def_177)))
(let ((.def_179 (and .def_4 .def_178)))
(let ((.def_180 (or b.counter.1__AT0 .def_179)))
(let ((.def_25 (not b.counter.1__AT0)))
(let ((.def_175 (or b.counter.1__AT1 .def_25)))
(let ((.def_181 (and .def_175 .def_180)))
(let ((.def_194 (and .def_9 .def_181)))
(let ((.def_195 (or b.counter.2__AT0 .def_194)))
(let ((.def_189 (and .def_4 .def_27)))
(let ((.def_190 (or b.counter.1__AT0 .def_189)))
(let ((.def_191 (and .def_175 .def_190)))
(let ((.def_192 (and b.counter.2__AT1 .def_191)))
(let ((.def_30 (not b.counter.2__AT0)))
(let ((.def_193 (or .def_30 .def_192)))
(let ((.def_196 (and .def_193 .def_195)))
(let ((.def_197 (and b.counter.3__AT1 .def_196)))
(let ((.def_198 (or b.counter.3__AT0 .def_197)))
(let ((.def_182 (and b.counter.2__AT1 .def_181)))
(let ((.def_183 (or b.counter.2__AT0 .def_182)))
(let ((.def_171 (or b.counter.1__AT1 b.counter.1__AT0)))
(let ((.def_169 (and .def_4 b.counter.0__AT1)))
(let ((.def_170 (or .def_25 .def_169)))
(let ((.def_172 (and .def_170 .def_171)))
(let ((.def_173 (and .def_9 .def_172)))
(let ((.def_174 (or .def_30 .def_173)))
(let ((.def_184 (and .def_174 .def_183)))
(let ((.def_187 (and .def_184 .def_186)))
(let ((.def_33 (not b.counter.3__AT0)))
(let ((.def_188 (or .def_33 .def_187)))
(let ((.def_199 (and .def_188 .def_198)))
(let ((.def_165 (* (- 1.0) speed_loss__AT0)))
(let ((.def_166 (+ 1.0 .def_165)))
(let ((.def_164 (* (- 1.0) b.speed_y__AT0)))
(let ((.def_167 (* .def_164 .def_166)))
(let ((.def_168 (= b.speed_y__AT1 .def_167)))
(let ((.def_200 (and .def_168 .def_199)))
(let ((.def_163 (not .def_162)))
(let ((.def_201 (or .def_163 .def_200)))
(let ((.def_212 (and .def_201 .def_211)))
(let ((.def_214 (and .def_212 .def_213)))
(let ((.def_215 (and .def_140 .def_214)))
(let ((.def_217 (and .def_215 .def_216)))
(let ((.def_218 (or .def_158 .def_217)))
(let ((.def_219 (or b.EVENT.1__AT0 .def_218)))
(let ((.def_150 (* (- 1.0) b.y__AT1)))
(let ((.def_74 (* b.speed_y__AT0 b.delta__AT0)))
(let ((.def_153 (+ .def_74 .def_150)))
(let ((.def_69 (* b.delta__AT0 b.delta__AT0)))
(let ((.def_73 (* .def_69 .def_72)))
(let ((.def_154 (+ .def_73 .def_153)))
(let ((.def_155 (+ b.y__AT0 .def_154)))
(let ((.def_156 (= .def_155 0.0 )))
(let ((.def_144 (* (- 1.0) b.speed_y__AT1)))
(let ((.def_142 (* b.delta__AT0 .def_71)))
(let ((.def_145 (+ .def_142 .def_144)))
(let ((.def_146 (+ b.speed_y__AT0 .def_145)))
(let ((.def_147 (= .def_146 0.0 )))
(let ((.def_132 (* (- 1.0) b.x__AT1)))
(let ((.def_136 (+ .def_132 b.x__AT0)))
(let ((.def_130 (* b.delta__AT0 b.speed_x__AT0)))
(let ((.def_137 (+ .def_130 .def_136)))
(let ((.def_138 (= .def_137 0.0 )))
(let ((.def_141 (and .def_138 .def_140)))
(let ((.def_148 (and .def_141 .def_147)))
(let ((.def_157 (and .def_148 .def_156)))
(let ((.def_160 (or .def_157 .def_159)))
(let ((.def_220 (and .def_160 .def_219)))
(let ((.def_225 (and .def_220 .def_224)))
(let ((.def_246 (and .def_225 .def_245)))
(let ((.def_255 (and .def_246 .def_254)))
(let ((.def_258 (and .def_255 .def_257)))
(let ((.def_262 (and .def_258 .def_261)))
(let ((.def_263 (and .def_44 .def_262)))
(let ((.def_280 (and .def_263 .def_279)))
(let ((.def_28 (and .def_25 .def_27)))
(let ((.def_31 (and .def_28 .def_30)))
(let ((.def_281 (and .def_31 .def_280)))
(let ((.def_80 (* b.delta__AT0 .def_79)))
(let ((.def_81 (+ b.speed_y__AT0 .def_80)))
(let ((.def_98 (<= .def_81 0.0 )))
(let ((.def_99 (not .def_98)))
(let ((.def_96 (<= b.speed_y__AT0 0.0 )))
(let ((.def_121 (or .def_96 .def_99)))
(let ((.def_82 (<= 0.0 .def_81)))
(let ((.def_120 (or .def_82 .def_85)))
(let ((.def_122 (and .def_120 .def_121)))
(let ((.def_123 (or .def_119 .def_122)))
(let ((.def_83 (not .def_82)))
(let ((.def_116 (or .def_83 .def_84)))
(let ((.def_97 (not .def_96)))
(let ((.def_115 (or .def_97 .def_98)))
(let ((.def_117 (and .def_115 .def_116)))
(let ((.def_118 (or .def_114 .def_117)))
(let ((.def_124 (and .def_118 .def_123)))
(let ((.def_111 (and .def_96 .def_98)))
(let ((.def_110 (and .def_82 .def_84)))
(let ((.def_112 (or .def_110 .def_111)))
(let ((.def_75 (+ .def_73 .def_74)))
(let ((.def_76 (+ b.y__AT0 .def_75)))
(let ((.def_90 (<= .def_76 0.0 )))
(let ((.def_104 (not .def_90)))
(let ((.def_88 (<= b.y__AT0 0.0 )))
(let ((.def_105 (or .def_88 .def_104)))
(let ((.def_63 (<= 0.0 b.y__AT0)))
(let ((.def_102 (not .def_63)))
(let ((.def_77 (<= 0.0 .def_76)))
(let ((.def_103 (or .def_77 .def_102)))
(let ((.def_106 (and .def_103 .def_105)))
(let ((.def_100 (or .def_97 .def_99)))
(let ((.def_101 (not .def_100)))
(let ((.def_107 (or .def_101 .def_106)))
(let ((.def_92 (not .def_77)))
(let ((.def_93 (or .def_63 .def_92)))
(let ((.def_89 (not .def_88)))
(let ((.def_91 (or .def_89 .def_90)))
(let ((.def_94 (and .def_91 .def_93)))
(let ((.def_86 (or .def_83 .def_85)))
(let ((.def_87 (not .def_86)))
(let ((.def_95 (or .def_87 .def_94)))
(let ((.def_108 (and .def_95 .def_107)))
(let ((.def_78 (and .def_63 .def_77)))
(let ((.def_109 (and .def_78 .def_108)))
(let ((.def_113 (and .def_109 .def_112)))
(let ((.def_125 (and .def_113 .def_124)))
(let ((.def_126 (and .def_53 .def_125)))
(let ((.def_127 (and .def_61 .def_126)))
(let ((.def_64 (and .def_62 .def_63)))
(let ((.def_47 (or .def_44 .def_46)))
(let ((.def_37 (or .def_25 .def_27)))
(let ((.def_41 (or b.counter.3__AT0 .def_37)))
(let ((.def_38 (or b.counter.2__AT0 .def_37)))
(let ((.def_36 (or .def_27 .def_30)))
(let ((.def_39 (and .def_36 .def_38)))
(let ((.def_40 (or .def_33 .def_39)))
(let ((.def_42 (and .def_40 .def_41)))
(let ((.def_48 (and .def_42 .def_47)))
(let ((.def_65 (and .def_48 .def_64)))
(let ((.def_34 (and .def_31 .def_33)))
(let ((.def_22 (= b.speed_y__AT0 0.0 )))
(let ((.def_19 (= b.y__AT0 10.0 )))
(let ((.def_14 (= b.time__AT0 0.0 )))
(let ((.def_16 (and .def_14 b.event_is_timed__AT0)))
(let ((.def_20 (and .def_16 .def_19)))
(let ((.def_23 (and .def_20 .def_22)))
(let ((.def_35 (and .def_23 .def_34)))
(let ((.def_66 (and .def_35 .def_65)))
(let ((.def_7 (and .def_4 .def_6)))
(let ((.def_10 (and .def_7 .def_9)))
(let ((.def_11 (not .def_10)))
(let ((.def_67 (and .def_11 .def_66)))
(let ((.def_128 (and .def_67 .def_127)))
(let ((.def_282 (and .def_128 .def_281)))
(let ((.def_337 (and .def_282 .def_336)))
.def_337))))))))))))))))))))))))))))))))))))))))))))))))))))))))))))))))))))))))))))))))))))))))))))))))))))))))))))))))))))))))))))))))))))))))))))))))))))))))))))))))))))))))))))))))))))))))))))))))))))))))))))))))))))))))))))))))))))))))))))))))))))))))))))))))))))))))))))))))))))))))))))))))))))))
(check-sat)
(exit)
